NAME : CMT02H
TYPE : MVRPB
DIMENSION : 76
VEHICLES : 6
CAPACITY : 140
EDGE_WEIGHT_TYPE : EXACT_2D
NODE_COORD_SECTION
1 40 40
2 22 22
3 36 26
4 21 45
5 45 35
6 55 20
7 33 34
8 50 50
9 55 45
10 26 59
11 40 66
12 55 65
13 35 51
14 62 35
15 62 57
16 62 24
17 21 36
18 33 44
19 9 56
20 62 48
21 66 14
22 44 13
23 26 13
24 11 28
25 7 43
26 17 64
27 41 46
28 55 34
29 35 16
30 52 26
31 43 26
32 31 76
33 22 53
34 26 29
35 50 40
36 55 50
37 54 10
38 60 15
39 47 66
40 30 60
41 30 50
42 12 17
43 15 14
44 16 19
45 21 48
46 50 30
47 51 42
48 50 15
49 48 21
50 12 38
51 15 56
52 29 39
53 54 38
54 55 57
55 67 41
56 10 70
57 6 25
58 65 27
59 40 60
60 70 64
61 64 4
62 36 6
63 30 20
64 20 30
65 15 5
66 50 70
67 57 72
68 45 42
69 38 33
70 50 4
71 66 8
72 59 5
73 35 60
74 27 24
75 40 20
76 40 37
PICKUP_AND_DELIVERY_SECTION
1 0 0 10000000 0 0 0
2 0 0 10000000 0 0 18
3 0 0 10000000 0 26 0
4 0 0 10000000 0 0 11
5 0 0 10000000 0 30 0
6 0 0 10000000 0 0 21
7 0 0 10000000 0 19 0
8 0 0 10000000 0 0 15
9 0 0 10000000 0 16 0
10 0 0 10000000 0 0 29
11 0 0 10000000 0 26 0
12 0 0 10000000 0 0 37
13 0 0 10000000 0 16 0
14 0 0 10000000 0 0 12
15 0 0 10000000 0 31 0
16 0 0 10000000 0 0 8
17 0 0 10000000 0 19 0
18 0 0 10000000 0 0 20
19 0 0 10000000 0 13 0
20 0 0 10000000 0 0 15
21 0 0 10000000 0 22 0
22 0 0 10000000 0 0 28
23 0 0 10000000 0 12 0
24 0 0 10000000 0 0 6
25 0 0 10000000 0 27 0
26 0 0 10000000 0 0 14
27 0 0 10000000 0 18 0
28 0 0 10000000 0 0 17
29 0 0 10000000 0 29 0
30 0 0 10000000 0 0 13
31 0 0 10000000 0 22 0
32 0 0 10000000 0 0 25
33 0 0 10000000 0 28 0
34 0 0 10000000 0 0 27
35 0 0 10000000 0 19 0
36 0 0 10000000 0 0 10
37 0 0 10000000 0 12 0
38 0 0 10000000 0 0 14
39 0 0 10000000 0 24 0
40 0 0 10000000 0 0 16
41 0 0 10000000 0 33 0
42 0 0 10000000 0 0 15
43 0 0 10000000 0 11 0
44 0 0 10000000 0 0 18
45 0 0 10000000 0 17 0
46 0 0 10000000 0 0 21
47 0 0 10000000 0 27 0
48 0 0 10000000 0 0 19
49 0 0 10000000 0 20 0
50 0 0 10000000 0 0 5
51 0 0 10000000 0 22 0
52 0 0 10000000 0 0 12
53 0 0 10000000 0 19 0
54 0 0 10000000 0 0 22
55 0 0 10000000 0 16 0
56 0 0 10000000 0 0 7
57 0 0 10000000 0 26 0
58 0 0 10000000 0 0 14
59 0 0 10000000 0 21 0
60 0 0 10000000 0 0 24
61 0 0 10000000 0 13 0
62 0 0 10000000 0 0 15
63 0 0 10000000 0 18 0
64 0 0 10000000 0 0 11
65 0 0 10000000 0 28 0
66 0 0 10000000 0 0 9
67 0 0 10000000 0 37 0
68 0 0 10000000 0 0 30
69 0 0 10000000 0 10 0
70 0 0 10000000 0 0 8
71 0 0 10000000 0 11 0
72 0 0 10000000 0 0 3
73 0 0 10000000 0 1 0
74 0 0 10000000 0 0 6
75 0 0 10000000 0 10 0
76 0 0 10000000 0 0 20
DEPOT_SECTION
1 
-1
EOF
